int NumberPatients = 72
int NumberOfRooms = 3
int NumberSurgeons = 17
int NumberOfDays = 6
Duration = [100,105,78,31,95,210,85,112,88,101,217,98,72,145,66,60,66,32,98,103,93,66,105,118,98,227,105,60,103,66,131,85,98,118,140,98,119,93,87,53,103,32,104,146,32,32,112,103,60,93,32,97,263,76,103,78,46,98,85,67,47,76,98,60,64,101,118,103,46,66,97,71];
Priority = [0,0,0,0,0,0,0,0,0,0,0,0,0,0,0,0,0,0,0,0,0,0,0,0,0,0,0,0,0,0,0,0,0,1,0,0,0,0,0,0,0,0,0,0,0,0,0,0,0,0,0,0,0,0,0,0,0,0,0,0,0,1,0,0,1,0,0,0,0,0,0,0];
Waiting = [317,95,116,107,78,232,70,459,148,190,120,59,21,37,121,107,534,428,57,78,358,351,39,57,361,375,242,25,66,120,50,382,22,45,133,95,38,84,161,37,120,37,158,179,53,106,274,39,394,60,31,37,116,37,191,247,93,24,73,99,56,116,361,59,57,60,80,430,39,37,60,25];
Surgeon = [1,4,1,3,8,1,8,1,8,4,3,7,4,6,2,4,2,5,10,1,1,2,4,2,5,5,4,3,3,8,1,8,2,3,5,3,1,8,2,5,6,4,5,5,4,3,1,1,12,4,4,1,11,6,1,4,5,4,3,10,5,2,4,6,4,5,8,5,11,6,4,8];
BlockAvailability = [[[0,0],[0,1],[0,0]],[[0,1],[0,0],[0,0]],[[0,0],[0,0],[1,0]],[[0,0],[0,0],[0,1]],[[0,0],[1,1],[1,0]],[[0,0],[1,0],[0,0]]];
SurgeonAvailability = [[[1,1],[1,1],[1,1],[1,1],[1,1],[1,1]],[[1,1],[1,1],[1,1],[1,1],[1,1],[1,1]],[[1,1],[1,1],[1,1],[1,1],[1,1],[1,1]],[[1,1],[1,1],[1,1],[1,1],[1,1],[1,1]],[[1,1],[1,1],[1,1],[1,1],[1,1],[1,1]],[[1,1],[1,1],[1,1],[1,1],[1,1],[1,1]],[[1,1],[1,1],[1,1],[1,1],[1,1],[1,1]],[[1,1],[1,1],[1,1],[1,1],[1,1],[1,1]],[[1,1],[1,1],[1,1],[1,1],[1,1],[1,1]],[[1,1],[1,1],[1,1],[1,1],[1,1],[1,1]],[[1,1],[1,1],[1,1],[1,1],[1,1],[1,1]],[[1,1],[1,1],[1,1],[1,1],[1,1],[1,1]],[[1,1],[1,1],[1,1],[1,1],[1,1],[1,1]],[[1,1],[1,1],[1,1],[1,1],[1,1],[1,1]],[[1,1],[1,1],[1,1],[1,1],[1,1],[1,1]],[[1,1],[1,1],[1,1],[1,1],[1,1],[1,1]],[[1,1],[1,1],[1,1],[1,1],[1,1],[1,1]]];
